c description: Random 3-CNF over 19 variables and 81 clauses
c generator: CNFgen (0.9.2)
c copyright: (C) 2012-2022 Massimo Lauria <massimo.lauria@uniroma1.it>
c url: https://massimolauria.net/cnfgen
c command line: cnfgen --output CNF_4.28/19_bit_81_266.cnf randkcnf 3 19 81
c
p cnf 19 81
2 -4 -10 0
-2 10 -13 0
4 -5 19 0
7 10 16 0
4 -5 -12 0
1 9 -17 0
11 -12 -15 0
-5 18 19 0
-10 11 -13 0
5 -9 -14 0
-1 -5 -18 0
5 10 11 0
6 -10 18 0
-6 -7 17 0
-4 -5 15 0
-1 6 -19 0
13 -15 16 0
11 -14 15 0
-1 2 -11 0
2 -8 -18 0
-1 2 -12 0
-7 -17 19 0
1 -6 11 0
-6 -9 11 0
-2 9 11 0
7 -13 14 0
2 8 14 0
8 -17 -18 0
4 -6 11 0
4 6 9 0
-8 -10 -12 0
2 14 -15 0
8 -14 -17 0
-2 -3 -13 0
-1 -3 -14 0
1 -13 16 0
1 -14 -17 0
1 2 -15 0
-2 -14 -19 0
-7 8 17 0
12 -13 14 0
14 -18 19 0
-1 -4 -5 0
1 -11 -13 0
-3 10 13 0
-3 -4 17 0
1 8 -9 0
1 10 15 0
-9 -14 15 0
-6 -12 13 0
-5 9 17 0
-5 7 15 0
9 17 18 0
7 9 12 0
1 10 13 0
2 3 -8 0
6 -7 -16 0
-3 18 19 0
-8 -13 -17 0
2 13 18 0
-4 -5 13 0
8 -16 -19 0
3 8 15 0
-1 16 17 0
9 15 -17 0
-5 -12 17 0
-3 15 17 0
2 4 -16 0
1 -4 -8 0
-1 -11 -12 0
6 8 18 0
5 -10 19 0
-6 9 -13 0
4 15 17 0
3 -4 -15 0
-4 15 -19 0
-2 -9 15 0
-8 14 -15 0
8 9 -11 0
-3 -9 10 0
-13 17 18 0
